p cnf 471 1315
-34 -32 0
-34 33 0
34 32 -33 0
-35 17 0
-35 -24 0
35 -17 24 0
-36 -33 0
-36 35 0
36 33 -35 0
-37 -1 0
-37 -36 0
37 1 36 0
-38 1 0
-38 36 0
38 -1 -36 0
-39 -37 0
-39 -38 0
39 37 38 0
-40 6 0
-40 -7 0
40 -6 7 0
-41 -6 0
-41 7 0
41 6 -7 0
-42 -40 0
-42 -41 0
42 40 41 0
-43 5 0
-43 -42 0
43 -5 42 0
-44 -5 0
-44 42 0
44 5 -42 0
-45 -43 0
-45 -44 0
45 43 44 0
-46 15 0
-46 -16 0
46 -15 16 0
-47 -15 0
-47 16 0
47 15 -16 0
-48 -46 0
-48 -47 0
48 46 47 0
-49 10 0
-49 -48 0
49 -10 48 0
-50 -10 0
-50 48 0
50 10 -48 0
-51 -49 0
-51 -50 0
51 49 50 0
-52 12 0
-52 -13 0
52 -12 13 0
-53 -12 0
-53 13 0
53 12 -13 0
-54 -52 0
-54 -53 0
54 52 53 0
-55 11 0
-55 -54 0
55 -11 54 0
-56 -11 0
-56 54 0
56 11 -54 0
-57 -55 0
-57 -56 0
57 55 56 0
-58 51 0
-58 57 0
58 -51 -57 0
-59 -51 0
-59 -57 0
59 51 57 0
-60 -58 0
-60 -59 0
60 58 59 0
-61 -45 0
-61 -60 0
61 45 60 0
-62 45 0
-62 60 0
62 -45 -60 0
-63 -61 0
-63 -62 0
63 61 62 0
-64 23 0
-64 24 0
64 -23 -24 0
-65 -29 0
-65 31 0
65 29 -31 0
-66 33 0
-66 65 0
66 -33 -65 0
-67 -64 0
-67 66 0
67 64 -66 0
-68 32 0
-68 -33 0
68 -32 33 0
-69 -64 0
-69 68 0
69 64 -68 0
-70 -67 0
-70 -69 0
70 67 69 0
-71 6 0
-71 -8 0
71 -6 8 0
-72 -6 0
-72 8 0
72 6 -8 0
-73 -71 0
-73 -72 0
73 71 72 0
-74 3 0
-74 -73 0
74 -3 73 0
-75 -3 0
-75 73 0
75 3 -73 0
-76 -74 0
-76 -75 0
76 74 75 0
-77 10 0
-77 -15 0
77 -10 15 0
-78 -10 0
-78 15 0
78 10 -15 0
-79 -77 0
-79 -78 0
79 77 78 0
-80 12 0
-80 -79 0
80 -12 79 0
-81 -12 0
-81 79 0
81 12 -79 0
-82 -80 0
-82 -81 0
82 80 81 0
-83 -76 0
-83 82 0
83 76 -82 0
-84 76 0
-84 -82 0
84 -76 82 0
-85 -83 0
-85 -84 0
85 83 84 0
-86 19 0
-86 23 0
86 -19 -23 0
-87 -33 0
-87 86 0
87 33 -86 0
-88 -85 0
-88 -87 0
88 85 87 0
-89 85 0
-89 87 0
89 -85 -87 0
-90 -88 0
-90 -89 0
90 88 89 0
-91 -31 0
-91 -90 0
91 31 90 0
-92 28 0
-92 -91 0
92 -28 91 0
-93 -28 0
-93 91 0
93 28 -91 0
-94 -92 0
-94 -93 0
94 92 93 0
-95 -9 0
-95 14 0
95 9 -14 0
-96 9 0
-96 -14 0
96 -9 14 0
-97 -95 0
-97 -96 0
97 95 96 0
-98 16 0
-98 -97 0
98 -16 97 0
-99 -16 0
-99 97 0
99 16 -97 0
-100 -98 0
-100 -99 0
100 98 99 0
-101 18 0
-101 -24 0
101 -18 24 0
-102 -33 0
-102 101 0
102 33 -101 0
-103 -15 0
-103 -102 0
103 15 102 0
-104 15 0
-104 102 0
104 -15 -102 0
-105 -103 0
-105 -104 0
105 103 104 0
-106 11 0
-106 -105 0
106 -11 105 0
-107 -11 0
-107 105 0
107 11 -105 0
-108 -106 0
-108 -107 0
108 106 107 0
-109 -100 0
-109 108 0
109 100 -108 0
-110 100 0
-110 -108 0
110 -100 108 0
-111 -109 0
-111 -110 0
111 109 110 0
-112 5 0
-112 -8 0
112 -5 8 0
-113 -5 0
-113 8 0
113 5 -8 0
-114 -112 0
-114 -113 0
114 112 113 0
-115 2 0
-115 -114 0
115 -2 114 0
-116 -2 0
-116 114 0
116 2 -114 0
-117 -115 0
-117 -116 0
117 115 116 0
-118 -111 0
-118 117 0
118 111 -117 0
-119 111 0
-119 -117 0
119 -111 117 0
-120 -118 0
-120 -119 0
120 118 119 0
-121 -31 0
-121 -120 0
121 31 120 0
-122 27 0
-122 -121 0
122 -27 121 0
-123 -27 0
-123 121 0
123 27 -121 0
-124 -122 0
-124 -123 0
124 122 123 0
-125 -94 0
-125 -124 0
125 94 124 0
-126 7 0
-126 -10 0
126 -7 10 0
-127 -7 0
-127 10 0
127 7 -10 0
-128 -126 0
-128 -127 0
128 126 127 0
-129 4 0
-129 -128 0
129 -4 128 0
-130 -4 0
-130 128 0
130 4 -128 0
-131 -129 0
-131 -130 0
131 129 130 0
-132 100 0
-132 -131 0
132 -100 131 0
-133 -100 0
-133 131 0
133 100 -131 0
-134 -132 0
-134 -133 0
134 132 133 0
-135 20 0
-135 23 0
135 -20 -23 0
-136 -33 0
-136 135 0
136 33 -135 0
-137 13 0
-137 136 0
137 -13 -136 0
-138 -13 0
-138 -136 0
138 13 136 0
-139 -137 0
-139 -138 0
139 137 138 0
-140 -134 0
-140 -139 0
140 134 139 0
-141 134 0
-141 139 0
141 -134 -139 0
-142 -140 0
-142 -141 0
142 140 141 0
-143 -31 0
-143 -142 0
143 31 142 0
-144 23 0
-144 -31 0
144 -23 31 0
-145 19 0
-145 -144 0
145 -19 144 0
-146 -143 0
-146 145 0
146 143 -145 0
-147 143 0
-147 -145 0
147 -143 145 0
-148 -146 0
-148 -147 0
148 146 147 0
-149 39 0
-149 -63 0
149 -39 63 0
-150 -39 0
-150 63 0
150 39 -63 0
-151 -149 0
-151 -150 0
151 149 150 0
-152 -31 0
-152 -151 0
152 31 151 0
-153 26 0
-153 -152 0
153 -26 152 0
-154 -26 0
-154 152 0
154 26 -152 0
-155 -153 0
-155 -154 0
155 153 154 0
-156 148 0
-156 155 0
156 -148 -155 0
-157 -24 0
-157 -31 0
157 24 31 0
-158 18 0
-158 -157 0
158 -18 157 0
-159 9 0
-159 -51 0
159 -9 51 0
-160 -9 0
-160 51 0
160 9 -51 0
-161 -159 0
-161 -160 0
161 159 160 0
-162 21 0
-162 -33 0
162 -21 33 0
-163 -161 0
-163 -162 0
163 161 162 0
-164 161 0
-164 162 0
164 -161 -162 0
-165 -163 0
-165 -164 0
165 163 164 0
-166 2 0
-166 -3 0
166 -2 3 0
-167 -2 0
-167 3 0
167 2 -3 0
-168 -166 0
-168 -167 0
168 166 167 0
-169 1 0
-169 -168 0
169 -1 168 0
-170 -1 0
-170 168 0
170 1 -168 0
-171 -169 0
-171 -170 0
171 169 170 0
-172 45 0
-172 171 0
172 -45 -171 0
-173 -45 0
-173 -171 0
173 45 171 0
-174 -172 0
-174 -173 0
174 172 173 0
-175 4 0
-175 -8 0
175 -4 8 0
-176 -4 0
-176 8 0
176 4 -8 0
-177 -175 0
-177 -176 0
177 175 176 0
-178 -174 0
-178 -177 0
178 174 177 0
-179 174 0
-179 177 0
179 -174 -177 0
-180 -178 0
-180 -179 0
180 178 179 0
-181 165 0
-181 180 0
181 -165 -180 0
-182 -165 0
-182 -180 0
182 165 180 0
-183 -181 0
-183 -182 0
183 181 182 0
-184 -31 0
-184 183 0
184 31 -183 0
-185 17 0
-185 -157 0
185 -17 157 0
-186 -184 0
-186 185 0
186 184 -185 0
-187 184 0
-187 -185 0
187 -184 185 0
-188 -186 0
-188 -187 0
188 186 187 0
-189 -158 0
-189 -188 0
189 158 188 0
-190 20 0
-190 -144 0
190 -20 144 0
-191 -4 0
-191 14 0
191 4 -14 0
-192 4 0
-192 -14 0
192 -4 14 0
-193 -191 0
-193 -192 0
193 191 192 0
-194 22 0
-194 -33 0
194 -22 33 0
-195 -193 0
-195 -194 0
195 193 194 0
-196 193 0
-196 194 0
196 -193 -194 0
-197 -195 0
-197 -196 0
197 195 196 0
-198 -51 0
-198 -171 0
198 51 171 0
-199 51 0
-199 171 0
199 -51 -171 0
-200 -198 0
-200 -199 0
200 198 199 0
-201 -57 0
-201 -200 0
201 57 200 0
-202 57 0
-202 200 0
202 -57 -200 0
-203 -201 0
-203 -202 0
203 201 202 0
-204 -197 0
-204 -203 0
204 197 203 0
-205 197 0
-205 203 0
205 -197 -203 0
-206 -204 0
-206 -205 0
206 204 205 0
-207 -31 0
-207 -206 0
207 31 206 0
-208 25 0
-208 -207 0
208 -25 207 0
-209 -25 0
-209 207 0
209 25 -207 0
-210 -208 0
-210 -209 0
210 208 209 0
-211 -190 0
-211 210 0
211 190 -210 0
-212 189 0
-212 211 0
212 -189 -211 0
-213 156 0
-213 212 0
213 -156 -212 0
-214 125 0
-214 213 0
214 -125 -213 0
-215 -70 0
-215 214 0
215 70 -214 0
-216 94 0
-216 124 0
216 -94 -124 0
-217 -148 0
-217 -155 0
217 148 155 0
-218 212 0
-218 217 0
218 -212 -217 0
-219 216 0
-219 218 0
219 -216 -218 0
-220 -70 0
-220 219 0
220 70 -219 0
-221 -94 0
-221 124 0
221 94 -124 0
-222 148 0
-222 -155 0
222 -148 155 0
-223 212 0
-223 222 0
223 -212 -222 0
-224 221 0
-224 223 0
224 -221 -223 0
-225 -70 0
-225 224 0
225 70 -224 0
-226 94 0
-226 -124 0
226 -94 124 0
-227 223 0
-227 226 0
227 -223 -226 0
-228 -70 0
-228 227 0
228 70 -227 0
-229 -190 0
-229 -210 0
229 190 210 0
-230 189 0
-230 229 0
230 -189 -229 0
-231 -148 0
-231 155 0
231 148 -155 0
-232 230 0
-232 231 0
232 -230 -231 0
-233 216 0
-233 232 0
233 -216 -232 0
-234 -70 0
-234 233 0
234 70 -233 0
-235 156 0
-235 230 0
235 -156 -230 0
-236 221 0
-236 235 0
236 -221 -235 0
-237 -70 0
-237 236 0
237 70 -236 0
-238 222 0
-238 230 0
238 -222 -230 0
-239 216 0
-239 238 0
239 -216 -238 0
-240 -70 0
-240 239 0
240 70 -239 0
-241 226 0
-241 235 0
241 -226 -235 0
-242 -70 0
-242 241 0
242 70 -241 0
-243 -240 0
-243 -242 0
243 240 242 0
-244 -237 0
-244 243 0
244 237 -243 0
-245 -234 0
-245 244 0
245 234 -244 0
-246 -228 0
-246 245 0
246 228 -245 0
-247 -225 0
-247 246 0
247 225 -246 0
-248 -220 0
-248 247 0
248 220 -247 0
-249 -215 0
-249 248 0
249 215 -248 0
-250 -30 0
-250 31 0
250 30 -31 0
-251 33 0
-251 250 0
251 -33 -250 0
-252 -64 0
-252 251 0
252 64 -251 0
-253 -69 0
-253 -252 0
253 69 252 0
-254 217 0
-254 230 0
254 -217 -230 0
-255 226 0
-255 254 0
255 -226 -254 0
-256 -253 0
-256 255 0
256 253 -255 0
-257 125 0
-257 238 0
257 -125 -238 0
-258 -253 0
-258 257 0
258 253 -257 0
-259 -158 0
-259 188 0
259 158 -188 0
-260 229 0
-260 259 0
260 -229 -259 0
-261 231 0
-261 260 0
261 -231 -260 0
-262 226 0
-262 261 0
262 -226 -261 0
-263 -253 0
-263 262 0
263 253 -262 0
-264 217 0
-264 260 0
264 -217 -260 0
-265 216 0
-265 264 0
265 -216 -264 0
-266 -253 0
-266 265 0
266 253 -265 0
-267 222 0
-267 260 0
267 -222 -260 0
-268 221 0
-268 267 0
268 -221 -267 0
-269 -253 0
-269 268 0
269 253 -268 0
-270 226 0
-270 267 0
270 -226 -267 0
-271 -253 0
-271 270 0
271 253 -270 0
-272 221 0
-272 254 0
272 -221 -254 0
-273 -253 0
-273 272 0
273 253 -272 0
-274 212 0
-274 231 0
274 -212 -231 0
-275 226 0
-275 274 0
275 -226 -274 0
-276 -253 0
-276 275 0
276 253 -275 0
-277 -273 0
-277 -276 0
277 273 276 0
-278 -271 0
-278 277 0
278 271 -277 0
-279 -269 0
-279 278 0
279 269 -278 0
-280 -266 0
-280 279 0
280 266 -279 0
-281 -263 0
-281 280 0
281 263 -280 0
-282 -258 0
-282 281 0
282 258 -281 0
-283 -256 0
-283 282 0
283 256 -282 0
-284 249 0
-284 283 0
284 -249 -283 0
-285 26 0
-285 31 0
285 -26 -31 0
-286 -284 0
-286 285 0
286 284 -285 0
-287 -63 0
-287 -286 0
287 63 286 0
-288 63 0
-288 286 0
288 -63 -286 0
-289 -287 0
-289 -288 0
289 287 288 0
-290 39 0
-290 -289 0
290 -39 289 0
-291 -39 0
-291 289 0
291 39 -289 0
-292 -290 0
-292 -291 0
292 290 291 0
-293 -34 0
-293 -292 0
293 34 292 0
-294 -33 0
-294 -283 0
294 33 283 0
-295 -30 0
-295 33 0
295 30 -33 0
-296 -60 0
-296 -97 0
296 60 97 0
-297 60 0
-297 97 0
297 -60 -97 0
-298 -296 0
-298 -297 0
298 296 297 0
-299 -295 0
-299 298 0
299 295 -298 0
-300 294 0
-300 -299 0
300 -294 299 0
-301 -294 0
-301 299 0
301 294 -299 0
-302 -300 0
-302 -301 0
302 300 301 0
-303 22 0
-303 30 0
303 -22 -30 0
-304 33 0
-304 -303 0
304 -33 303 0
-305 -302 0
-305 -304 0
305 302 304 0
-306 302 0
-306 304 0
306 -302 -304 0
-307 -305 0
-307 -306 0
307 305 306 0
-308 -33 0
-308 -249 0
308 33 249 0
-309 -29 0
-309 33 0
309 29 -33 0
-310 180 0
-310 -309 0
310 -180 309 0
-311 308 0
-311 -310 0
311 -308 310 0
-312 -308 0
-312 310 0
312 308 -310 0
-313 -311 0
-313 -312 0
313 311 312 0
-314 21 0
-314 29 0
314 -21 -29 0
-315 33 0
-315 -314 0
315 -33 314 0
-316 -313 0
-316 -315 0
316 313 315 0
-317 313 0
-317 315 0
317 -313 -315 0
-318 -316 0
-318 -317 0
318 316 317 0
-319 31 0
-319 145 0
319 -31 -145 0
-320 -284 0
-320 319 0
320 284 -319 0
-321 -142 0
-321 -320 0
321 142 320 0
-322 142 0
-322 320 0
322 -142 -320 0
-323 -321 0
-323 -322 0
323 321 322 0
-324 -34 0
-324 -323 0
324 34 323 0
-325 28 0
-325 31 0
325 -28 -31 0
-326 -284 0
-326 325 0
326 284 -325 0
-327 -90 0
-327 -326 0
327 90 326 0
-328 90 0
-328 326 0
328 -90 -326 0
-329 -327 0
-329 -328 0
329 327 328 0
-330 -34 0
-330 -329 0
330 34 329 0
-331 27 0
-331 31 0
331 -27 -31 0
-332 -284 0
-332 331 0
332 284 -331 0
-333 -120 0
-333 -332 0
333 120 332 0
-334 120 0
-334 332 0
334 -120 -332 0
-335 -333 0
-335 -334 0
335 333 334 0
-336 -34 0
-336 -335 0
336 34 335 0
-337 25 0
-337 31 0
337 -25 -31 0
-338 -284 0
-338 337 0
338 284 -337 0
-339 -206 0
-339 -338 0
339 206 338 0
-340 206 0
-340 338 0
340 -206 -338 0
-341 -339 0
-341 -340 0
341 339 340 0
-342 -34 0
-342 -341 0
342 34 341 0
-343 -165 0
-343 180 0
343 165 -180 0
-344 165 0
-344 -180 0
344 -165 180 0
-345 -343 0
-345 -344 0
345 343 344 0
-346 31 0
-346 185 0
346 -31 -185 0
-347 -284 0
-347 346 0
347 284 -346 0
-348 -345 0
-348 -347 0
348 345 347 0
-349 345 0
-349 347 0
349 -345 -347 0
-350 -348 0
-350 -349 0
350 348 349 0
-351 -34 0
-351 -350 0
351 34 350 0
-352 94 0
-352 148 0
352 -94 -148 0
-353 124 0
-353 352 0
353 -124 -352 0
-354 155 0
-354 353 0
354 -155 -353 0
-355 -158 0
-355 354 0
355 158 -354 0
-356 210 0
-356 355 0
356 -210 -355 0
-357 188 0
-357 356 0
357 -188 -356 0
-358 -190 0
-358 357 0
358 190 -357 0
-359 -33 0
-359 -358 0
359 33 358 0
-360 -32 0
-360 359 0
360 32 -359 0
-361 -32 0
-361 360 0
361 32 -360 0
-362 158 0
-362 188 0
362 -158 -188 0
-363 211 0
-363 362 0
363 -211 -362 0
-364 156 0
-364 363 0
364 -156 -363 0
-365 216 0
-365 364 0
365 -216 -364 0
-366 69 0
-366 365 0
366 -69 -365 0
-367 190 0
-367 210 0
367 -190 -210 0
-368 259 0
-368 367 0
368 -259 -367 0
-369 156 0
-369 368 0
369 -156 -368 0
-370 216 0
-370 369 0
370 -216 -369 0
-371 69 0
-371 370 0
371 -69 -370 0
-372 211 0
-372 259 0
372 -211 -259 0
-373 231 0
-373 372 0
373 -231 -372 0
-374 216 0
-374 373 0
374 -216 -373 0
-375 69 0
-375 374 0
375 -69 -374 0
-376 156 0
-376 372 0
376 -156 -372 0
-377 221 0
-377 376 0
377 -221 -376 0
-378 69 0
-378 377 0
378 -69 -377 0
-379 226 0
-379 376 0
379 -226 -376 0
-380 69 0
-380 379 0
380 -69 -379 0
-381 222 0
-381 372 0
381 -222 -372 0
-382 216 0
-382 381 0
382 -216 -381 0
-383 69 0
-383 382 0
383 -69 -382 0
-384 213 0
-384 216 0
384 -213 -216 0
-385 69 0
-385 384 0
385 -69 -384 0
-386 156 0
-386 260 0
386 -156 -260 0
-387 216 0
-387 386 0
387 -216 -386 0
-388 69 0
-388 387 0
388 -69 -387 0
-389 -385 0
-389 -388 0
389 385 388 0
-390 -383 0
-390 389 0
390 383 -389 0
-391 -380 0
-391 390 0
391 380 -390 0
-392 -378 0
-392 391 0
392 378 -391 0
-393 -375 0
-393 392 0
393 375 -392 0
-394 -371 0
-394 393 0
394 371 -393 0
-395 -366 0
-395 394 0
395 366 -394 0
-396 284 0
-396 395 0
396 -284 -395 0
-397 32 0
-397 359 0
397 -32 -359 0
-398 396 0
-398 397 0
398 -396 -397 0
-399 -361 0
-399 -398 0
399 361 398 0
-400 -14 0
-400 263 0
400 14 -263 0
-401 14 0
-401 -263 0
401 -14 263 0
-402 -400 0
-402 -401 0
402 400 401 0
-403 -13 0
-403 266 0
403 13 -266 0
-404 13 0
-404 -266 0
404 -13 266 0
-405 -403 0
-405 -404 0
405 403 404 0
-406 -12 0
-406 269 0
406 12 -269 0
-407 12 0
-407 -269 0
407 -12 269 0
-408 -406 0
-408 -407 0
408 406 407 0
-409 -11 0
-409 271 0
409 11 -271 0
-410 11 0
-410 -271 0
410 -11 271 0
-411 -409 0
-411 -410 0
411 409 410 0
-412 -9 0
-412 276 0
412 9 -276 0
-413 9 0
-413 -276 0
413 -9 276 0
-414 -412 0
-414 -413 0
414 412 413 0
-415 -8 0
-415 215 0
415 8 -215 0
-416 8 0
-416 -215 0
416 -8 215 0
-417 -415 0
-417 -416 0
417 415 416 0
-418 -7 0
-418 220 0
418 7 -220 0
-419 7 0
-419 -220 0
419 -7 220 0
-420 -418 0
-420 -419 0
420 418 419 0
-421 -6 0
-421 225 0
421 6 -225 0
-422 6 0
-422 -225 0
422 -6 225 0
-423 -421 0
-423 -422 0
423 421 422 0
-424 -5 0
-424 228 0
424 5 -228 0
-425 5 0
-425 -228 0
425 -5 228 0
-426 -424 0
-426 -425 0
426 424 425 0
-427 -16 0
-427 256 0
427 16 -256 0
-428 16 0
-428 -256 0
428 -16 256 0
-429 -427 0
-429 -428 0
429 427 428 0
-430 -15 0
-430 258 0
430 15 -258 0
-431 15 0
-431 -258 0
431 -15 258 0
-432 -430 0
-432 -431 0
432 430 431 0
-433 -10 0
-433 273 0
433 10 -273 0
-434 10 0
-434 -273 0
434 -10 273 0
-435 -433 0
-435 -434 0
435 433 434 0
-436 -4 0
-436 234 0
436 4 -234 0
-437 4 0
-437 -234 0
437 -4 234 0
-438 -436 0
-438 -437 0
438 436 437 0
-439 -3 0
-439 237 0
439 3 -237 0
-440 3 0
-440 -237 0
440 -3 237 0
-441 -439 0
-441 -440 0
441 439 440 0
-442 -1 0
-442 240 0
442 1 -240 0
-443 1 0
-443 -240 0
443 -1 240 0
-444 -442 0
-444 -443 0
444 442 443 0
-445 -2 0
-445 242 0
445 2 -242 0
-446 2 0
-446 -242 0
446 -2 242 0
-447 -445 0
-447 -446 0
447 445 446 0
-448 444 0
-448 447 0
448 -444 -447 0
-449 441 0
-449 448 0
449 -441 -448 0
-450 438 0
-450 449 0
450 -438 -449 0
-451 435 0
-451 450 0
451 -435 -450 0
-452 432 0
-452 451 0
452 -432 -451 0
-453 429 0
-453 452 0
453 -429 -452 0
-454 426 0
-454 453 0
454 -426 -453 0
-455 423 0
-455 454 0
455 -423 -454 0
-456 420 0
-456 455 0
456 -420 -455 0
-457 417 0
-457 456 0
457 -417 -456 0
-458 414 0
-458 457 0
458 -414 -457 0
-459 411 0
-459 458 0
459 -411 -458 0
-460 408 0
-460 459 0
460 -408 -459 0
-461 405 0
-461 460 0
461 -405 -460 0
-462 402 0
-462 461 0
462 -402 -461 0
-463 -399 0
-463 462 0
463 399 -462 0
-464 -351 0
-464 463 0
464 351 -463 0
-465 -342 0
-465 464 0
465 342 -464 0
-466 -336 0
-466 465 0
466 336 -465 0
-467 -330 0
-467 466 0
467 330 -466 0
-468 -324 0
-468 467 0
468 324 -467 0
-469 318 0
-469 468 0
469 -318 -468 0
-470 307 0
-470 469 0
470 -307 -469 0
-471 -293 0
-471 470 0
471 293 -470 0
-471 0
